
Gurobi 7.0.2 (mac64, Python) logging started Fri Feb 24 16:32:34 2017


Gurobi 7.0.2 (mac64, Python) logging started Fri Feb 24 16:32:35 2017


Gurobi 7.0.2 (mac64, Python) logging started Fri Feb 24 16:32:35 2017


Gurobi 7.0.2 (mac64, Python) logging started Fri Feb 24 16:32:35 2017


Gurobi 7.0.2 (mac64, Python) logging started Fri Feb 24 16:32:36 2017


Gurobi 7.0.2 (mac64, Python) logging started Fri Feb 24 16:32:36 2017


Gurobi 7.0.2 (mac64, Python) logging started Fri Feb 24 16:32:37 2017


Gurobi 7.0.2 (mac64, Python) logging started Fri Feb 24 16:32:37 2017


Gurobi 7.0.2 (mac64, Python) logging started Fri Feb 24 16:32:37 2017


Gurobi 7.0.2 (mac64, Python) logging started Fri Feb 24 16:32:38 2017


Gurobi 7.0.2 (mac64, Python) logging started Fri Feb 24 16:33:15 2017


Gurobi 7.0.2 (mac64, Python) logging started Fri Feb 24 16:33:15 2017


Gurobi 7.0.2 (mac64, Python) logging started Fri Feb 24 16:33:16 2017


Gurobi 7.0.2 (mac64, Python) logging started Fri Feb 24 16:33:16 2017


Gurobi 7.0.2 (mac64, Python) logging started Fri Feb 24 16:33:17 2017


Gurobi 7.0.2 (mac64, Python) logging started Fri Feb 24 16:33:17 2017


Gurobi 7.0.2 (mac64, Python) logging started Fri Feb 24 16:33:18 2017


Gurobi 7.0.2 (mac64, Python) logging started Fri Feb 24 16:33:18 2017


Gurobi 7.0.2 (mac64, Python) logging started Fri Feb 24 16:33:18 2017


Gurobi 7.0.2 (mac64, Python) logging started Fri Feb 24 16:33:19 2017


Gurobi 7.0.2 (mac64, Python) logging started Sat Feb 25 16:13:36 2017


Gurobi 7.0.2 (mac64, Python) logging started Sat Feb 25 16:13:36 2017


Gurobi 7.0.2 (mac64, Python) logging started Sat Feb 25 16:13:37 2017


Gurobi 7.0.2 (mac64, Python) logging started Sat Feb 25 16:13:37 2017


Gurobi 7.0.2 (mac64, Python) logging started Sat Feb 25 16:13:38 2017


Gurobi 7.0.2 (mac64, Python) logging started Sat Feb 25 16:13:38 2017


Gurobi 7.0.2 (mac64, Python) logging started Sat Feb 25 16:13:39 2017


Gurobi 7.0.2 (mac64, Python) logging started Sat Feb 25 16:13:39 2017


Gurobi 7.0.2 (mac64, Python) logging started Sat Feb 25 16:13:40 2017


Gurobi 7.0.2 (mac64, Python) logging started Sat Feb 25 16:13:40 2017


Gurobi 7.0.2 (mac64, Python) logging started Sun Feb 26 21:05:54 2017


Gurobi 7.0.2 (mac64, Python) logging started Sun Feb 26 21:05:54 2017


Gurobi 7.0.2 (mac64, Python) logging started Sun Feb 26 21:05:54 2017


Gurobi 7.0.2 (mac64, Python) logging started Sun Feb 26 21:05:55 2017


Gurobi 7.0.2 (mac64, Python) logging started Sun Feb 26 21:05:55 2017


Gurobi 7.0.2 (mac64, Python) logging started Sun Feb 26 21:05:56 2017


Gurobi 7.0.2 (mac64, Python) logging started Sun Feb 26 21:05:56 2017


Gurobi 7.0.2 (mac64, Python) logging started Sun Feb 26 21:05:57 2017


Gurobi 7.0.2 (mac64, Python) logging started Sun Feb 26 21:05:57 2017


Gurobi 7.0.2 (mac64, Python) logging started Sun Feb 26 21:05:58 2017


Gurobi 7.0.2 (mac64, Python) logging started Sun Feb 26 21:05:59 2017


Gurobi 7.0.2 (mac64, Python) logging started Sun Feb 26 21:05:59 2017


Gurobi 7.0.2 (mac64, Python) logging started Sun Feb 26 21:05:59 2017


Gurobi 7.0.2 (mac64, Python) logging started Sun Feb 26 21:06:00 2017


Gurobi 7.0.2 (mac64, Python) logging started Sun Feb 26 21:06:01 2017


Gurobi 7.0.2 (mac64, Python) logging started Sun Feb 26 21:06:03 2017


Gurobi 7.0.2 (mac64, Python) logging started Sun Feb 26 21:06:03 2017


Gurobi 7.0.2 (mac64, Python) logging started Sun Feb 26 21:06:04 2017


Gurobi 7.0.2 (mac64, Python) logging started Sun Feb 26 21:06:04 2017


Gurobi 7.0.2 (mac64, Python) logging started Sun Feb 26 21:06:05 2017


Gurobi 7.0.2 (mac64, Python) logging started Sun Feb 26 21:06:07 2017


Gurobi 7.0.2 (mac64, Python) logging started Sun Feb 26 21:06:09 2017


Gurobi 7.0.2 (mac64, Python) logging started Sun Feb 26 21:06:10 2017


Gurobi 7.0.2 (mac64, Python) logging started Sun Feb 26 21:06:10 2017


Gurobi 7.0.2 (mac64, Python) logging started Sun Feb 26 21:06:12 2017


Gurobi 7.0.2 (mac64, Python) logging started Sun Feb 26 21:06:13 2017


Gurobi 7.0.2 (mac64, Python) logging started Sun Feb 26 21:06:14 2017


Gurobi 7.0.2 (mac64, Python) logging started Sun Feb 26 21:06:16 2017


Gurobi 7.0.2 (mac64, Python) logging started Sun Feb 26 21:06:18 2017


Gurobi 7.0.2 (mac64, Python) logging started Sun Feb 26 21:06:19 2017


Gurobi 7.0.2 (mac64, Python) logging started Sun Feb 26 21:06:19 2017


Gurobi 7.0.2 (mac64, Python) logging started Sun Feb 26 21:06:20 2017


Gurobi 7.0.2 (mac64, Python) logging started Sun Feb 26 21:06:21 2017


Gurobi 7.0.2 (mac64, Python) logging started Sun Feb 26 21:06:23 2017


Gurobi 7.0.2 (mac64, Python) logging started Sun Feb 26 21:06:27 2017


Gurobi 7.0.2 (mac64, Python) logging started Sun Feb 26 21:06:31 2017


Gurobi 7.0.2 (mac64, Python) logging started Sun Feb 26 21:06:37 2017


Gurobi 7.0.2 (mac64, Python) logging started Sun Feb 26 21:06:37 2017


Gurobi 7.0.2 (mac64, Python) logging started Sun Feb 26 21:06:38 2017


Gurobi 7.0.2 (mac64, Python) logging started Sun Feb 26 21:06:39 2017


Gurobi 7.0.2 (mac64, Python) logging started Sun Feb 26 21:06:40 2017


Gurobi 7.0.2 (mac64, Python) logging started Sun Feb 26 21:06:43 2017


Gurobi 7.0.2 (mac64, Python) logging started Sun Feb 26 21:06:46 2017


Gurobi 7.0.2 (mac64, Python) logging started Sun Feb 26 21:06:50 2017


Gurobi 7.0.2 (mac64, Python) logging started Sun Feb 26 21:06:54 2017


Gurobi 7.0.2 (mac64, Python) logging started Sun Feb 26 21:07:00 2017


Gurobi 7.0.2 (mac64, Python) logging started Sun Feb 26 21:07:01 2017


Gurobi 7.0.2 (mac64, Python) logging started Sun Feb 26 21:07:01 2017


Gurobi 7.0.2 (mac64, Python) logging started Sun Feb 26 21:07:02 2017


Gurobi 7.0.2 (mac64, Python) logging started Sun Feb 26 21:07:03 2017


Gurobi 7.0.2 (mac64, Python) logging started Sun Feb 26 21:07:07 2017


Gurobi 7.0.2 (mac64, Python) logging started Sun Feb 26 21:07:09 2017


Gurobi 7.0.2 (mac64, Python) logging started Sun Feb 26 21:07:14 2017


Gurobi 7.0.2 (mac64, Python) logging started Sun Feb 26 21:07:18 2017


Gurobi 7.0.2 (mac64, Python) logging started Sun Feb 26 21:07:25 2017


Gurobi 7.0.2 (mac64, Python) logging started Sun Feb 26 21:35:13 2017


Gurobi 7.0.2 (mac64, Python) logging started Sun Feb 26 21:35:14 2017


Gurobi 7.0.2 (mac64, Python) logging started Sun Feb 26 21:35:15 2017


Gurobi 7.0.2 (mac64, Python) logging started Sun Feb 26 21:35:17 2017


Gurobi 7.0.2 (mac64, Python) logging started Sun Feb 26 21:35:18 2017


Gurobi 7.0.2 (mac64, Python) logging started Sun Feb 26 21:35:54 2017


Gurobi 7.0.2 (mac64, Python) logging started Sun Feb 26 21:35:55 2017


Gurobi 7.0.2 (mac64, Python) logging started Sun Feb 26 21:35:56 2017


Gurobi 7.0.2 (mac64, Python) logging started Sun Feb 26 21:35:58 2017


Gurobi 7.0.2 (mac64, Python) logging started Sun Feb 26 21:35:59 2017


Gurobi 7.0.2 (mac64, Python) logging started Sun Feb 26 21:37:11 2017


Gurobi 7.0.2 (mac64, Python) logging started Sun Feb 26 21:37:11 2017


Gurobi 7.0.2 (mac64, Python) logging started Sun Feb 26 21:37:12 2017


Gurobi 7.0.2 (mac64, Python) logging started Sun Feb 26 21:37:14 2017


Gurobi 7.0.2 (mac64, Python) logging started Sun Feb 26 21:37:16 2017


Gurobi 7.0.2 (mac64, Python) logging started Sun Feb 26 21:37:18 2017


Gurobi 7.0.2 (mac64, Python) logging started Sun Feb 26 21:37:20 2017

